Minimize
  obj: x0 + x1 + x2 + x3 + x4 + x5 + x6 + x7 + x8

Subject To
  c0: x6 + x8 = 26
  c1: x0 + x2 + x3 + x5 + x7 = 47
  c2: x1 + x4 + x5 + x7 = 33
  c3: x0 + x1 + x3 + x4 + x6 + x7 + x8 = 84
  c4: x1 + x2 + x3 + x5 + x6 + x7 + x8 = 65
  c5: x2 + x5 = 12
  c6: x1 + x2 + x4 + x7 + x8 = 46
  c7: x2 + x3 + x7 + x8 = 37

Bounds
  x0 >= 0
  x1 >= 0
  x2 >= 0
  x3 >= 0
  x4 >= 0
  x5 >= 0
  x6 >= 0
  x7 >= 0
  x8 >= 0

Generals
  x0 x1 x2 x3 x4 x5 x6 x7 x8

End
